
        $ From http://www.csplib.org/Problems/prob009/data/helmut.pdf
        $ Problem number 54
        $ Sequence length : 25
        language ESSENCE' 1.0
        letting sizemaster be 242
        letting sizes be sequence(1,3,6,7,9,13,14,16,17,19,23,25,26,28,30,31,47,51,54,57,60,64,67,111,131)
        